NAME /Users/henri/Research/solvers/instances/idol-instances/robust/collection/cbp_Subramanyam_et_al_2020/CapBud_N25_3/models/uncertain_technology_matrix/
ROWS
 N  OBJ
 L  capacity
 L  c_3695
 L  c_3696
 L  c_3697
 L  c_3698
 L  c_3699
 L  c_3700
 L  c_3701
 L  c_3702
 L  c_3703
 L  c_3704
 L  c_3705
 L  c_3706
 L  c_3707
 L  c_3708
 L  c_3709
 L  c_3710
 L  c_3711
 L  c_3712
 L  c_3713
 L  c_3714
 L  c_3715
 L  c_3716
 L  c_3717
 L  c_3718
 L  c_3719
COLUMNS
    MARKER    'MARKER'                 'INTORG'
    x_0        OBJ        0.635082
    x_0        c_3695     1
    x_0        capacity   0.127016
    x_1        OBJ        4.05643
    x_1        c_3696     1
    x_1        capacity   0.811285
    x_2        OBJ        5.82663
    x_2        c_3697     1
    x_2        capacity   1.16533
    x_3        OBJ        5.38587
    x_3        c_3698     1
    x_3        capacity   1.07717
    x_4        OBJ        5.13913
    x_4        c_3699     1
    x_4        capacity   1.02783
    x_5        OBJ        4.08803
    x_5        c_3700     1
    x_5        capacity   0.817607
    x_6        OBJ        4.30202
    x_6        c_3701     1
    x_6        capacity   0.860404
    x_7        OBJ        5.88581
    x_7        c_3702     1
    x_7        capacity   1.17716
    x_8        OBJ        4.94886
    x_8        c_3703     1
    x_8        capacity   0.989772
    x_9        OBJ        7.81733
    x_9        c_3704     1
    x_9        capacity   1.56347
    x_10       OBJ        2.81968
    x_10       c_3705     1
    x_10       capacity   0.563936
    x_11       OBJ        0.309519
    x_11       c_3706     1
    x_11       capacity   0.0619037
    x_12       OBJ        8.74267
    x_12       c_3707     1
    x_12       capacity   1.74853
    x_13       OBJ        8.6355
    x_13       c_3708     1
    x_13       capacity   1.7271
    x_14       OBJ        1.57602
    x_14       c_3709     1
    x_14       capacity   0.315204
    x_15       OBJ        0.398416
    x_15       c_3710     1
    x_15       capacity   0.0796832
    x_16       OBJ        4.02202
    x_16       c_3711     1
    x_16       capacity   0.804405
    x_17       OBJ        5.26047
    x_17       c_3712     1
    x_17       capacity   1.05209
    x_18       OBJ        1.96941
    x_18       c_3713     1
    x_18       capacity   0.393883
    x_19       OBJ        4.41171
    x_19       c_3714     1
    x_19       capacity   0.882342
    x_20       OBJ        1.78892
    x_20       c_3715     1
    x_20       capacity   0.357783
    x_21       OBJ        5.75746
    x_21       c_3716     1
    x_21       capacity   1.15149
    x_22       OBJ        4.59885
    x_22       c_3717     1
    x_22       capacity   0.919769
    x_23       OBJ        0.902474
    x_23       c_3718     1
    x_23       capacity   0.180495
    x_24       OBJ        2.55744
    x_24       c_3719     1
    x_24       capacity   0.511487
    y_0        OBJ        0.508065
    y_0        c_3695     1
    y_0        capacity   0.127016
    y_1        OBJ        3.24514
    y_1        c_3696     1
    y_1        capacity   0.811285
    y_2        OBJ        4.6613
    y_2        c_3697     1
    y_2        capacity   1.16533
    y_3        OBJ        4.30869
    y_3        c_3698     1
    y_3        capacity   1.07717
    y_4        OBJ        4.11131
    y_4        c_3699     1
    y_4        capacity   1.02783
    y_5        OBJ        3.27043
    y_5        c_3700     1
    y_5        capacity   0.817607
    y_6        OBJ        3.44161
    y_6        c_3701     1
    y_6        capacity   0.860404
    y_7        OBJ        4.70865
    y_7        c_3702     1
    y_7        capacity   1.17716
    y_8        OBJ        3.95909
    y_8        c_3703     1
    y_8        capacity   0.989772
    y_9        OBJ        6.25386
    y_9        c_3704     1
    y_9        capacity   1.56347
    y_10       OBJ        2.25575
    y_10       c_3705     1
    y_10       capacity   0.563936
    y_11       OBJ        0.247615
    y_11       c_3706     1
    y_11       capacity   0.0619037
    y_12       OBJ        6.99414
    y_12       c_3707     1
    y_12       capacity   1.74853
    y_13       OBJ        6.9084
    y_13       c_3708     1
    y_13       capacity   1.7271
    y_14       OBJ        1.26082
    y_14       c_3709     1
    y_14       capacity   0.315204
    y_15       OBJ        0.318733
    y_15       c_3710     1
    y_15       capacity   0.0796832
    y_16       OBJ        3.21762
    y_16       c_3711     1
    y_16       capacity   0.804405
    y_17       OBJ        4.20838
    y_17       c_3712     1
    y_17       capacity   1.05209
    y_18       OBJ        1.57553
    y_18       c_3713     1
    y_18       capacity   0.393883
    y_19       OBJ        3.52937
    y_19       c_3714     1
    y_19       capacity   0.882342
    y_20       OBJ        1.43113
    y_20       c_3715     1
    y_20       capacity   0.357783
    y_21       OBJ        4.60597
    y_21       c_3716     1
    y_21       capacity   1.15149
    y_22       OBJ        3.67908
    y_22       c_3717     1
    y_22       capacity   0.919769
    y_23       OBJ        0.72198
    y_23       c_3718     1
    y_23       capacity   0.180495
    y_24       OBJ        2.04595
    y_24       c_3719     1
    y_24       capacity   0.511487
    MARKER    'MARKER'                 'INTEND'
RHS
    RHS       capacity   50.9179
    RHS       c_3695     1
    RHS       c_3696     1
    RHS       c_3697     1
    RHS       c_3698     1
    RHS       c_3699     1
    RHS       c_3700     1
    RHS       c_3701     1
    RHS       c_3702     1
    RHS       c_3703     1
    RHS       c_3704     1
    RHS       c_3705     1
    RHS       c_3706     1
    RHS       c_3707     1
    RHS       c_3708     1
    RHS       c_3709     1
    RHS       c_3710     1
    RHS       c_3711     1
    RHS       c_3712     1
    RHS       c_3713     1
    RHS       c_3714     1
    RHS       c_3715     1
    RHS       c_3716     1
    RHS       c_3717     1
    RHS       c_3718     1
    RHS       c_3719     1
BOUNDS
 LI BND       x_0        0
 UI BND       x_0        1
 LI BND       x_1        0
 UI BND       x_1        1
 LI BND       x_2        0
 UI BND       x_2        1
 LI BND       x_3        0
 UI BND       x_3        1
 LI BND       x_4        0
 UI BND       x_4        1
 LI BND       x_5        0
 UI BND       x_5        1
 LI BND       x_6        0
 UI BND       x_6        1
 LI BND       x_7        0
 UI BND       x_7        1
 LI BND       x_8        0
 UI BND       x_8        1
 LI BND       x_9        0
 UI BND       x_9        1
 LI BND       x_10       0
 UI BND       x_10       1
 LI BND       x_11       0
 UI BND       x_11       1
 LI BND       x_12       0
 UI BND       x_12       1
 LI BND       x_13       0
 UI BND       x_13       1
 LI BND       x_14       0
 UI BND       x_14       1
 LI BND       x_15       0
 UI BND       x_15       1
 LI BND       x_16       0
 UI BND       x_16       1
 LI BND       x_17       0
 UI BND       x_17       1
 LI BND       x_18       0
 UI BND       x_18       1
 LI BND       x_19       0
 UI BND       x_19       1
 LI BND       x_20       0
 UI BND       x_20       1
 LI BND       x_21       0
 UI BND       x_21       1
 LI BND       x_22       0
 UI BND       x_22       1
 LI BND       x_23       0
 UI BND       x_23       1
 LI BND       x_24       0
 UI BND       x_24       1
 LI BND       y_0        0
 UI BND       y_0        1
 LI BND       y_1        0
 UI BND       y_1        1
 LI BND       y_2        0
 UI BND       y_2        1
 LI BND       y_3        0
 UI BND       y_3        1
 LI BND       y_4        0
 UI BND       y_4        1
 LI BND       y_5        0
 UI BND       y_5        1
 LI BND       y_6        0
 UI BND       y_6        1
 LI BND       y_7        0
 UI BND       y_7        1
 LI BND       y_8        0
 UI BND       y_8        1
 LI BND       y_9        0
 UI BND       y_9        1
 LI BND       y_10       0
 UI BND       y_10       1
 LI BND       y_11       0
 UI BND       y_11       1
 LI BND       y_12       0
 UI BND       y_12       1
 LI BND       y_13       0
 UI BND       y_13       1
 LI BND       y_14       0
 UI BND       y_14       1
 LI BND       y_15       0
 UI BND       y_15       1
 LI BND       y_16       0
 UI BND       y_16       1
 LI BND       y_17       0
 UI BND       y_17       1
 LI BND       y_18       0
 UI BND       y_18       1
 LI BND       y_19       0
 UI BND       y_19       1
 LI BND       y_20       0
 UI BND       y_20       1
 LI BND       y_21       0
 UI BND       y_21       1
 LI BND       y_22       0
 UI BND       y_22       1
 LI BND       y_23       0
 UI BND       y_23       1
 LI BND       y_24       0
 UI BND       y_24       1
ENDATA
